
;this file is automatically generated: Tue Oct 27 10:35:00 CST 2020

;declarations generated

(declare-fun oclExcludes ( Int Int) Bool)
(declare-fun Cardinality ( Int) Int)
(declare-fun obj_cf208884_64c0_4227_ac35_873931a538f8 ( Int) Int)
(declare-fun type_ca33d6ab_3f3d_45b9_8ca5_a3952d329f3e_Class24 ( Int) Bool)
(declare-fun type_ca33d6ab_3f3d_45b9_8ca5_a3952d329f3e_Class19 ( Int) Bool)
(declare-fun type_ca33d6ab_3f3d_45b9_8ca5_a3952d329f3e_Class16 ( Int) Bool)
(declare-fun oclSelect ( Int Bool) Int)
(declare-fun type_ca33d6ab_3f3d_45b9_8ca5_a3952d329f3e_Class8 ( Int) Bool)
(declare-fun type_ca33d6ab_3f3d_45b9_8ca5_a3952d329f3e_Class5 ( Int) Bool)
(declare-fun Enum0 ( Int) Int)
(declare-fun Enum1 ( Int) Int)
(declare-fun Enum2 ( Int) Int)
(declare-fun container_ ( Int) Int)
(declare-fun class5_Class5IntAttr3 ( Int) Int)
(declare-fun oclIncludes ( Int Int) Bool)
(declare-fun ObjAt ( Int Int) Int)

;formula(s) generated
(assert (forall ((p Int)) (=> ( type_ca33d6ab_3f3d_45b9_8ca5_a3952d329f3e_Class5 p )  (and (>= ( Enum2 ( obj_cf208884_64c0_4227_ac35_873931a538f8 p )  )  0) (<= ( Enum2 ( obj_cf208884_64c0_4227_ac35_873931a538f8 p )  )  6)))))
(assert (! (forall ((v Int)) (=> (and (and (and (and ( type_ca33d6ab_3f3d_45b9_8ca5_a3952d329f3e_Class5 v )  ( type_ca33d6ab_3f3d_45b9_8ca5_a3952d329f3e_Class24 v ) ) ( type_ca33d6ab_3f3d_45b9_8ca5_a3952d329f3e_Class16 v ) ) ( type_ca33d6ab_3f3d_45b9_8ca5_a3952d329f3e_Class8 v ) ) ( type_ca33d6ab_3f3d_45b9_8ca5_a3952d329f3e_Class19 v ) ) (or (= ( Enum2 ( obj_cf208884_64c0_4227_ac35_873931a538f8 v )  )  2) (or (forall ((v Int)) (=> (and (and (and (and ( type_ca33d6ab_3f3d_45b9_8ca5_a3952d329f3e_Class5 v )  ( type_ca33d6ab_3f3d_45b9_8ca5_a3952d329f3e_Class24 v ) ) ( type_ca33d6ab_3f3d_45b9_8ca5_a3952d329f3e_Class16 v ) ) ( type_ca33d6ab_3f3d_45b9_8ca5_a3952d329f3e_Class8 v ) ) ( type_ca33d6ab_3f3d_45b9_8ca5_a3952d329f3e_Class19 v ) ) (> ( class5_Class5IntAttr3 ( obj_cf208884_64c0_4227_ac35_873931a538f8 v )  )  16))) (forall ((v Int)) (=> (and (and (and (and ( type_ca33d6ab_3f3d_45b9_8ca5_a3952d329f3e_Class5 v )  ( type_ca33d6ab_3f3d_45b9_8ca5_a3952d329f3e_Class24 v ) ) ( type_ca33d6ab_3f3d_45b9_8ca5_a3952d329f3e_Class16 v ) ) ( type_ca33d6ab_3f3d_45b9_8ca5_a3952d329f3e_Class8 v ) ) ( type_ca33d6ab_3f3d_45b9_8ca5_a3952d329f3e_Class19 v ) ) (= ( Enum2 ( obj_cf208884_64c0_4227_ac35_873931a538f8 v )  )  2))))))):named l0))
(assert (exists ((o Int)) (and (and (and (and ( type_ca33d6ab_3f3d_45b9_8ca5_a3952d329f3e_Class5 ( obj_cf208884_64c0_4227_ac35_873931a538f8 o )  )  ( type_ca33d6ab_3f3d_45b9_8ca5_a3952d329f3e_Class24 ( obj_cf208884_64c0_4227_ac35_873931a538f8 o )  ) ) ( type_ca33d6ab_3f3d_45b9_8ca5_a3952d329f3e_Class16 ( obj_cf208884_64c0_4227_ac35_873931a538f8 o )  ) ) ( type_ca33d6ab_3f3d_45b9_8ca5_a3952d329f3e_Class8 ( obj_cf208884_64c0_4227_ac35_873931a538f8 o )  ) ) ( type_ca33d6ab_3f3d_45b9_8ca5_a3952d329f3e_Class19 ( obj_cf208884_64c0_4227_ac35_873931a538f8 o )  ) )))

 ;end of formula 